(set-option :produce-proofs true)
(declare-const size Int)
(declare-const x000 Int)
(assert (< x000 2))
(assert (>= x000 0))
(declare-const x001 Int)
(assert (< x001 2))
(assert (>= x001 0))
(declare-const x002 Int)
(assert (< x002 2))
(assert (>= x002 0))
(declare-const x003 Int)
(assert (< x003 2))
(assert (>= x003 0))
(declare-const x004 Int)
(assert (< x004 2))
(assert (>= x004 0))
(declare-const x005 Int)
(assert (< x005 2))
(assert (>= x005 0))
(declare-const x006 Int)
(assert (< x006 2))
(assert (>= x006 0))
(declare-const x007 Int)
(assert (< x007 2))
(assert (>= x007 0))
(declare-const x008 Int)
(assert (< x008 2))
(assert (>= x008 0))
(declare-const x009 Int)
(assert (< x009 2))
(assert (>= x009 0))
(declare-const x010 Int)
(assert (< x010 2))
(assert (>= x010 0))
(declare-const x011 Int)
(assert (< x011 2))
(assert (>= x011 0))
(declare-const x012 Int)
(assert (< x012 2))
(assert (>= x012 0))
(declare-const x013 Int)
(assert (< x013 2))
(assert (>= x013 0))
(declare-const x014 Int)
(assert (< x014 2))
(assert (>= x014 0))
(declare-const x015 Int)
(assert (< x015 2))
(assert (>= x015 0))
(declare-const x016 Int)
(assert (< x016 2))
(assert (>= x016 0))
(declare-const x017 Int)
(assert (< x017 2))
(assert (>= x017 0))
(declare-const x018 Int)
(assert (< x018 2))
(assert (>= x018 0))
(declare-const x019 Int)
(assert (< x019 2))
(assert (>= x019 0))
(declare-const x020 Int)
(assert (< x020 2))
(assert (>= x020 0))
(declare-const x021 Int)
(assert (< x021 2))
(assert (>= x021 0))
(declare-const x022 Int)
(assert (< x022 2))
(assert (>= x022 0))
(declare-const x023 Int)
(assert (< x023 2))
(assert (>= x023 0))
(declare-const x024 Int)
(assert (< x024 2))
(assert (>= x024 0))
(declare-const x025 Int)
(assert (< x025 2))
(assert (>= x025 0))
(declare-const x026 Int)
(assert (< x026 2))
(assert (>= x026 0))
(declare-const x027 Int)
(assert (< x027 2))
(assert (>= x027 0))
(declare-const x028 Int)
(assert (< x028 2))
(assert (>= x028 0))
(declare-const x029 Int)
(assert (< x029 2))
(assert (>= x029 0))
(declare-const x030 Int)
(assert (< x030 2))
(assert (>= x030 0))
(declare-const x031 Int)
(assert (< x031 2))
(assert (>= x031 0))
(declare-const x032 Int)
(assert (< x032 2))
(assert (>= x032 0))
(declare-const x033 Int)
(assert (< x033 2))
(assert (>= x033 0))
(declare-const x034 Int)
(assert (< x034 2))
(assert (>= x034 0))
(declare-const x035 Int)
(assert (< x035 2))
(assert (>= x035 0))
(declare-const x036 Int)
(assert (< x036 2))
(assert (>= x036 0))
(declare-const x037 Int)
(assert (< x037 2))
(assert (>= x037 0))
(declare-const x038 Int)
(assert (< x038 2))
(assert (>= x038 0))
(declare-const x039 Int)
(assert (< x039 2))
(assert (>= x039 0))
(declare-const x040 Int)
(assert (< x040 2))
(assert (>= x040 0))
(declare-const x041 Int)
(assert (< x041 2))
(assert (>= x041 0))
(declare-const x042 Int)
(assert (< x042 2))
(assert (>= x042 0))
(declare-const x043 Int)
(assert (< x043 2))
(assert (>= x043 0))
(assert (= size (+ x000 x001 x002 x003 x004 x005 x006 x007 x008 x009 x010 x011 x012 x013 x014 x015 x016 x017 x018 x019 x020 x021 x022 x023 x024 x025 x026 x027 x028 x029 x030 x031 x032 x033 x034 x035 x036 x037 x038 x039 x040 x041 x042 x043)))
(assert (> 14 (+ x000 x001 x002 x003 x004 x005 x006 x007 x008 x009 x010 x011 x012 x013)))
(assert (> 14 (+ x000 x002 x004 x006 x008 x010 x012 x014 x016 x018 x020 x022 x024 x026)))
(assert (> 14 (+ x000 x003 x006 x009 x012 x015 x018 x021 x024 x027 x030 x033 x036 x039)))
(assert (> 14 (+ x001 x002 x003 x004 x005 x006 x007 x008 x009 x010 x011 x012 x013 x014)))
(assert (> 14 (+ x001 x003 x005 x007 x009 x011 x013 x015 x017 x019 x021 x023 x025 x027)))
(assert (> 14 (+ x001 x004 x007 x010 x013 x016 x019 x022 x025 x028 x031 x034 x037 x040)))
(assert (> 14 (+ x002 x003 x004 x005 x006 x007 x008 x009 x010 x011 x012 x013 x014 x015)))
(assert (> 14 (+ x002 x004 x006 x008 x010 x012 x014 x016 x018 x020 x022 x024 x026 x028)))
(assert (> 14 (+ x002 x005 x008 x011 x014 x017 x020 x023 x026 x029 x032 x035 x038 x041)))
(assert (> 14 (+ x003 x004 x005 x006 x007 x008 x009 x010 x011 x012 x013 x014 x015 x016)))
(assert (> 14 (+ x003 x005 x007 x009 x011 x013 x015 x017 x019 x021 x023 x025 x027 x029)))
(assert (> 14 (+ x003 x006 x009 x012 x015 x018 x021 x024 x027 x030 x033 x036 x039 x042)))
(assert (> 14 (+ x004 x005 x006 x007 x008 x009 x010 x011 x012 x013 x014 x015 x016 x017)))
(assert (> 14 (+ x004 x006 x008 x010 x012 x014 x016 x018 x020 x022 x024 x026 x028 x030)))
(assert (> 14 (+ x004 x007 x010 x013 x016 x019 x022 x025 x028 x031 x034 x037 x040 x043)))
(assert (> 14 (+ x005 x006 x007 x008 x009 x010 x011 x012 x013 x014 x015 x016 x017 x018)))
(assert (> 14 (+ x005 x007 x009 x011 x013 x015 x017 x019 x021 x023 x025 x027 x029 x031)))
(assert (> 14 (+ x006 x007 x008 x009 x010 x011 x012 x013 x014 x015 x016 x017 x018 x019)))
(assert (> 14 (+ x006 x008 x010 x012 x014 x016 x018 x020 x022 x024 x026 x028 x030 x032)))
(assert (> 14 (+ x007 x008 x009 x010 x011 x012 x013 x014 x015 x016 x017 x018 x019 x020)))
(assert (> 14 (+ x007 x009 x011 x013 x015 x017 x019 x021 x023 x025 x027 x029 x031 x033)))
(assert (> 14 (+ x008 x009 x010 x011 x012 x013 x014 x015 x016 x017 x018 x019 x020 x021)))
(assert (> 14 (+ x008 x010 x012 x014 x016 x018 x020 x022 x024 x026 x028 x030 x032 x034)))
(assert (> 14 (+ x009 x010 x011 x012 x013 x014 x015 x016 x017 x018 x019 x020 x021 x022)))
(assert (> 14 (+ x009 x011 x013 x015 x017 x019 x021 x023 x025 x027 x029 x031 x033 x035)))
(assert (> 14 (+ x010 x011 x012 x013 x014 x015 x016 x017 x018 x019 x020 x021 x022 x023)))
(assert (> 14 (+ x010 x012 x014 x016 x018 x020 x022 x024 x026 x028 x030 x032 x034 x036)))
(assert (> 14 (+ x011 x012 x013 x014 x015 x016 x017 x018 x019 x020 x021 x022 x023 x024)))
(assert (> 14 (+ x011 x013 x015 x017 x019 x021 x023 x025 x027 x029 x031 x033 x035 x037)))
(assert (> 14 (+ x012 x013 x014 x015 x016 x017 x018 x019 x020 x021 x022 x023 x024 x025)))
(assert (> 14 (+ x012 x014 x016 x018 x020 x022 x024 x026 x028 x030 x032 x034 x036 x038)))
(assert (> 14 (+ x013 x014 x015 x016 x017 x018 x019 x020 x021 x022 x023 x024 x025 x026)))
(assert (> 14 (+ x013 x015 x017 x019 x021 x023 x025 x027 x029 x031 x033 x035 x037 x039)))
(assert (> 14 (+ x014 x015 x016 x017 x018 x019 x020 x021 x022 x023 x024 x025 x026 x027)))
(assert (> 14 (+ x014 x016 x018 x020 x022 x024 x026 x028 x030 x032 x034 x036 x038 x040)))
(assert (> 14 (+ x015 x016 x017 x018 x019 x020 x021 x022 x023 x024 x025 x026 x027 x028)))
(assert (> 14 (+ x015 x017 x019 x021 x023 x025 x027 x029 x031 x033 x035 x037 x039 x041)))
(assert (> 14 (+ x016 x017 x018 x019 x020 x021 x022 x023 x024 x025 x026 x027 x028 x029)))
(assert (> 14 (+ x016 x018 x020 x022 x024 x026 x028 x030 x032 x034 x036 x038 x040 x042)))
(assert (> 14 (+ x017 x018 x019 x020 x021 x022 x023 x024 x025 x026 x027 x028 x029 x030)))
(assert (> 14 (+ x017 x019 x021 x023 x025 x027 x029 x031 x033 x035 x037 x039 x041 x043)))
(assert (> 14 (+ x018 x019 x020 x021 x022 x023 x024 x025 x026 x027 x028 x029 x030 x031)))
(assert (> 14 (+ x019 x020 x021 x022 x023 x024 x025 x026 x027 x028 x029 x030 x031 x032)))
(assert (> 14 (+ x020 x021 x022 x023 x024 x025 x026 x027 x028 x029 x030 x031 x032 x033)))
(assert (> 14 (+ x021 x022 x023 x024 x025 x026 x027 x028 x029 x030 x031 x032 x033 x034)))
(assert (> 14 (+ x022 x023 x024 x025 x026 x027 x028 x029 x030 x031 x032 x033 x034 x035)))
(assert (> 14 (+ x023 x024 x025 x026 x027 x028 x029 x030 x031 x032 x033 x034 x035 x036)))
(assert (> 14 (+ x024 x025 x026 x027 x028 x029 x030 x031 x032 x033 x034 x035 x036 x037)))
(assert (> 14 (+ x025 x026 x027 x028 x029 x030 x031 x032 x033 x034 x035 x036 x037 x038)))
(assert (> 14 (+ x026 x027 x028 x029 x030 x031 x032 x033 x034 x035 x036 x037 x038 x039)))
(assert (> 14 (+ x027 x028 x029 x030 x031 x032 x033 x034 x035 x036 x037 x038 x039 x040)))
(assert (> 14 (+ x028 x029 x030 x031 x032 x033 x034 x035 x036 x037 x038 x039 x040 x041)))
(assert (> 14 (+ x029 x030 x031 x032 x033 x034 x035 x036 x037 x038 x039 x040 x041 x042)))
(assert (> 14 (+ x030 x031 x032 x033 x034 x035 x036 x037 x038 x039 x040 x041 x042 x043)))
(assert (>= size 42))
(check-sat)
(get-proof)
